0010000000000000
0110000111111111
0110001100000000
0110001100000000
0110001100000000
0110001100000000
0110001100000000
0110001000000000
0010001000000000
0010011000000000
0010011000000000
0010010000000000
0010011111111111
0010000000000000
0010000000000000
0010000000000000
